* #variable= 50 #constraint= 50 #product= 614 sizeproduct= 1228
****************************************
* begin normalizer comments
* category= OPT-SMALLINT-NLC
* end normalizer comments
****************************************
min: +1 x1 +1 x2 +1 x3 +1 x4 +1 x5 +1 x6 +1 x7 +1 x8 +1 x9 +1 x10 +1 x11 +1 x12 +1 x13 +1 x14 +1 x15 +1 x16 +1 x17 +1 x18 +1 x19 +1 x20 +1 x21 +1 x22 +1 x23 +1 x24 +1 x25 +1 x26 +1 x27 +1 x28 +1 x29 +1 x30 +1 x31 +1 x32 +1 x33 +1 x34 +1 x35 +1 x36 +1 x37 +1 x38 +1 x39 +1 x40 +1 x41 +1 x42 +1 x43 +1 x44 +1 x45 +1 x46 +1 x47 +1 x48 +1 x49 +1 x50 ;
+1 ~x1 x2 +1 ~x1 x34 +1 ~x1 x25 +1 ~x1 x27 +1 ~x1 x14 +1 ~x1 x38 +1 ~x1 x26 +1 ~x1 x29 +1 ~x1 x36 +1 ~x1 x45 +1 ~x1 x8 +1 ~x1 x9 +1 ~x1 x17 +1 ~x1 x46 +1 x1 >= 1 ;
+1 x1 ~x2 +1 ~x2 x5 +1 ~x2 x15 +1 ~x2 x4 +1 ~x2 x3 +1 ~x2 x42 +1 ~x2 x50 +1 ~x2 x18 +1 ~x2 x19 +1 ~x2 x30 +1 ~x2 x12 +1 ~x2 x16 +1 ~x2 x20 +1 ~x2 x24 +1 ~x2 x40 +1 ~x2 x48 +1 x2 >= 1 ;
+1 x2 ~x3 +1 ~x3 x24 +1 ~x3 x19 +1 ~x3 x23 +1 ~x3 x33 +1 ~x3 x21 +1 ~x3 x31 +1 ~x3 x5 +1 ~x3 x7 +1 ~x3 x50 +1 ~x3 x8 +1 ~x3 x11 +1 ~x3 x14 +1 ~x3 x26 +1 ~x3 x41 +1 ~x3 x43 +1 x3 >= 1 ;
+1 x2 ~x4 +1 ~x4 x20 +1 ~x4 x45 +1 ~x4 x25 +1 ~x4 x34 +1 ~x4 x23 +1 ~x4 x12 +1 ~x4 x30 +1 ~x4 x27 +1 ~x4 x26 +1 ~x4 x38 +1 ~x4 x43 +1 ~x4 x44 +1 ~x4 x49 +1 x4 >= 1 ;
+1 x2 ~x5 +1 x3 ~x5 +1 ~x5 x45 +1 ~x5 x32 +1 ~x5 x43 +1 ~x5 x49 +1 ~x5 x23 +1 ~x5 x44 +1 ~x5 x48 +1 ~x5 x40 +1 ~x5 x6 +1 ~x5 x14 +1 ~x5 x17 +1 ~x5 x27 +1 ~x5 x29 +1 x5 >= 1 ;
+1 x5 ~x6 +1 ~x6 x48 +1 ~x6 x18 +1 ~x6 x22 +1 ~x6 x23 +1 ~x6 x37 +1 ~x6 x46 +1 ~x6 x7 +1 ~x6 x17 +1 ~x6 x38 +1 ~x6 x9 +1 ~x6 x14 +1 ~x6 x19 +1 ~x6 x25 +1 ~x6 x49 +1 ~x6 x50 +1 x6 >= 1 ;
+1 x3 ~x7 +1 x6 ~x7 +1 ~x7 x32 +1 ~x7 x23 +1 ~x7 x44 +1 ~x7 x42 +1 ~x7 x40 +1 ~x7 x8 +1 ~x7 x27 +1 ~x7 x12 +1 ~x7 x9 +1 ~x7 x10 +1 ~x7 x16 +1 ~x7 x25 +1 ~x7 x36 +1 ~x7 x45 +1 x7 >= 1 ;
+1 x1 ~x8 +1 x3 ~x8 +1 x7 ~x8 +1 ~x8 x20 +1 ~x8 x41 +1 ~x8 x47 +1 ~x8 x24 +1 ~x8 x39 +1 ~x8 x34 +1 ~x8 x50 +1 ~x8 x22 +1 x8 >= 1 ;
+1 x1 ~x9 +1 x6 ~x9 +1 x7 ~x9 +1 ~x9 x38 +1 ~x9 x33 +1 ~x9 x18 +1 ~x9 x11 +1 ~x9 x12 +1 ~x9 x14 +1 ~x9 x25 +1 ~x9 x24 +1 ~x9 x28 +1 ~x9 x29 +1 ~x9 x32 +1 ~x9 x34 +1 ~x9 x45 +1 x9 >= 1 ;
+1 x7 ~x10 +1 ~x10 x45 +1 ~x10 x49 +1 ~x10 x47 +1 ~x10 x28 +1 ~x10 x40 +1 ~x10 x36 +1 ~x10 x17 +1 ~x10 x50 +1 ~x10 x25 +1 ~x10 x15 +1 ~x10 x16 +1 ~x10 x18 +1 x10 >= 1 ;
+1 x3 ~x11 +1 x9 ~x11 +1 ~x11 x42 +1 ~x11 x27 +1 ~x11 x15 +1 ~x11 x44 +1 ~x11 x29 +1 ~x11 x13 +1 ~x11 x28 +1 ~x11 x12 +1 ~x11 x22 +1 ~x11 x24 +1 ~x11 x36 +1 ~x11 x50 +1 x11 >= 1 ;
+1 x2 ~x12 +1 x4 ~x12 +1 x7 ~x12 +1 x9 ~x12 +1 x11 ~x12 +1 ~x12 x47 +1 ~x12 x15 +1 ~x12 x17 +1 ~x12 x21 +1 ~x12 x30 +1 ~x12 x13 +1 ~x12 x48 +1 x12 >= 1 ;
+1 x11 ~x13 +1 x12 ~x13 +1 ~x13 x15 +1 ~x13 x47 +1 ~x13 x31 +1 ~x13 x45 +1 ~x13 x27 +1 ~x13 x39 +1 ~x13 x35 +1 ~x13 x14 +1 ~x13 x20 +1 ~x13 x22 +1 ~x13 x42 +1 x13 >= 1 ;
+1 x1 ~x14 +1 x3 ~x14 +1 x5 ~x14 +1 x6 ~x14 +1 x9 ~x14 +1 x13 ~x14 +1 ~x14 x26 +1 ~x14 x34 +1 ~x14 x27 +1 ~x14 x39 +1 ~x14 x21 +1 ~x14 x25 +1 x14 >= 1 ;
+1 x2 ~x15 +1 x10 ~x15 +1 x11 ~x15 +1 x12 ~x15 +1 x13 ~x15 +1 ~x15 x21 +1 ~x15 x32 +1 ~x15 x33 +1 ~x15 x35 +1 ~x15 x37 +1 ~x15 x17 +1 ~x15 x23 +1 ~x15 x38 +1 ~x15 x46 +1 x15 >= 1 ;
+1 x2 ~x16 +1 x7 ~x16 +1 x10 ~x16 +1 ~x16 x21 +1 ~x16 x37 +1 ~x16 x24 +1 ~x16 x19 +1 ~x16 x27 +1 ~x16 x49 +1 ~x16 x38 +1 ~x16 x20 +1 ~x16 x26 +1 ~x16 x30 +1 ~x16 x35 +1 ~x16 x36 +1 ~x16 x45 +1 x16 >= 1 ;
+1 x1 ~x17 +1 x5 ~x17 +1 x6 ~x17 +1 x10 ~x17 +1 x12 ~x17 +1 x15 ~x17 +1 ~x17 x27 +1 ~x17 x28 +1 ~x17 x40 +1 ~x17 x39 +1 ~x17 x18 +1 x17 >= 1 ;
+1 x2 ~x18 +1 x6 ~x18 +1 x9 ~x18 +1 x10 ~x18 +1 x17 ~x18 +1 ~x18 x33 +1 ~x18 x27 +1 ~x18 x37 +1 ~x18 x32 +1 ~x18 x19 +1 ~x18 x24 +1 ~x18 x31 +1 ~x18 x42 +1 ~x18 x44 +1 x18 >= 1 ;
+1 x2 ~x19 +1 x3 ~x19 +1 x6 ~x19 +1 x16 ~x19 +1 x18 ~x19 +1 ~x19 x20 +1 ~x19 x29 +1 ~x19 x40 +1 ~x19 x37 +1 ~x19 x46 +1 ~x19 x21 +1 ~x19 x24 +1 ~x19 x33 +1 ~x19 x43 +1 x19 >= 1 ;
+1 x2 ~x20 +1 x4 ~x20 +1 x8 ~x20 +1 x13 ~x20 +1 x16 ~x20 +1 x19 ~x20 +1 ~x20 x30 +1 ~x20 x47 +1 ~x20 x24 +1 ~x20 x23 +1 ~x20 x21 +1 ~x20 x29 +1 ~x20 x36 +1 ~x20 x44 +1 x20 >= 1 ;
+1 x3 ~x21 +1 x12 ~x21 +1 x14 ~x21 +1 x15 ~x21 +1 x16 ~x21 +1 x19 ~x21 +1 x20 ~x21 +1 ~x21 x41 +1 ~x21 x48 +1 ~x21 x25 +1 ~x21 x28 +1 ~x21 x29 +1 x21 >= 1 ;
+1 x6 ~x22 +1 x8 ~x22 +1 x11 ~x22 +1 x13 ~x22 +1 ~x22 x36 +1 ~x22 x30 +1 ~x22 x44 +1 ~x22 x29 +1 ~x22 x43 +1 ~x22 x32 +1 ~x22 x31 +1 x22 >= 1 ;
+1 x3 ~x23 +1 x4 ~x23 +1 x5 ~x23 +1 x6 ~x23 +1 x7 ~x23 +1 x15 ~x23 +1 x20 ~x23 +1 ~x23 x35 +1 ~x23 x31 +1 ~x23 x39 +1 x23 >= 1 ;
+1 x2 ~x24 +1 x3 ~x24 +1 x8 ~x24 +1 x9 ~x24 +1 x11 ~x24 +1 x16 ~x24 +1 x18 ~x24 +1 x19 ~x24 +1 x20 ~x24 +1 ~x24 x28 +1 ~x24 x38 +1 ~x24 x39 +1 x24 >= 1 ;
+1 x1 ~x25 +1 x4 ~x25 +1 x6 ~x25 +1 x7 ~x25 +1 x9 ~x25 +1 x10 ~x25 +1 x14 ~x25 +1 x21 ~x25 +1 ~x25 x37 +1 ~x25 x33 +1 ~x25 x34 +1 ~x25 x35 +1 ~x25 x40 +1 ~x25 x42 +1 x25 >= 1 ;
+1 x1 ~x26 +1 x3 ~x26 +1 x4 ~x26 +1 x14 ~x26 +1 x16 ~x26 +1 ~x26 x46 +1 ~x26 x31 +1 ~x26 x41 +1 ~x26 x38 +1 ~x26 x47 +1 ~x26 x28 +1 ~x26 x50 +1 x26 >= 1 ;
+1 x1 ~x27 +1 x4 ~x27 +1 x5 ~x27 +1 x7 ~x27 +1 x11 ~x27 +1 x13 ~x27 +1 x14 ~x27 +1 x16 ~x27 +1 x17 ~x27 +1 x18 ~x27 +1 ~x27 x43 +1 x27 >= 1 ;
+1 x9 ~x28 +1 x10 ~x28 +1 x11 ~x28 +1 x17 ~x28 +1 x21 ~x28 +1 x24 ~x28 +1 x26 ~x28 +1 ~x28 x32 +1 ~x28 x46 +1 ~x28 x38 +1 ~x28 x31 +1 ~x28 x34 +1 x28 >= 1 ;
+1 x1 ~x29 +1 x5 ~x29 +1 x9 ~x29 +1 x11 ~x29 +1 x19 ~x29 +1 x20 ~x29 +1 x21 ~x29 +1 x22 ~x29 +1 ~x29 x40 +1 ~x29 x49 +1 ~x29 x30 +1 ~x29 x33 +1 x29 >= 1 ;
+1 x2 ~x30 +1 x4 ~x30 +1 x12 ~x30 +1 x16 ~x30 +1 x20 ~x30 +1 x22 ~x30 +1 x29 ~x30 +1 ~x30 x31 +1 ~x30 x47 +1 ~x30 x39 +1 x30 >= 1 ;
+1 x3 ~x31 +1 x13 ~x31 +1 x18 ~x31 +1 x22 ~x31 +1 x23 ~x31 +1 x26 ~x31 +1 x28 ~x31 +1 x30 ~x31 +1 ~x31 x35 +1 ~x31 x41 +1 ~x31 x32 +1 ~x31 x45 +1 ~x31 x50 +1 x31 >= 1 ;
+1 x5 ~x32 +1 x7 ~x32 +1 x9 ~x32 +1 x15 ~x32 +1 x18 ~x32 +1 x22 ~x32 +1 x28 ~x32 +1 x31 ~x32 +1 ~x32 x35 +1 ~x32 x42 +1 ~x32 x36 +1 ~x32 x47 +1 x32 >= 1 ;
+1 x3 ~x33 +1 x9 ~x33 +1 x15 ~x33 +1 x18 ~x33 +1 x19 ~x33 +1 x25 ~x33 +1 x29 ~x33 +1 ~x33 x42 +1 ~x33 x49 +1 ~x33 x39 +1 x33 >= 1 ;
+1 x1 ~x34 +1 x4 ~x34 +1 x8 ~x34 +1 x9 ~x34 +1 x14 ~x34 +1 x25 ~x34 +1 x28 ~x34 +1 ~x34 x49 +1 ~x34 x43 +1 ~x34 x48 +1 ~x34 x35 +1 x34 >= 1 ;
+1 x13 ~x35 +1 x15 ~x35 +1 x16 ~x35 +1 x23 ~x35 +1 x25 ~x35 +1 x31 ~x35 +1 x32 ~x35 +1 x34 ~x35 +1 ~x35 x37 +1 ~x35 x49 +1 x35 >= 1 ;
+1 x1 ~x36 +1 x7 ~x36 +1 x10 ~x36 +1 x11 ~x36 +1 x16 ~x36 +1 x20 ~x36 +1 x22 ~x36 +1 x32 ~x36 +1 ~x36 x37 +1 ~x36 x39 +1 ~x36 x38 +1 ~x36 x48 +1 x36 >= 1 ;
+1 x6 ~x37 +1 x15 ~x37 +1 x16 ~x37 +1 x18 ~x37 +1 x19 ~x37 +1 x25 ~x37 +1 x35 ~x37 +1 x36 ~x37 +1 ~x37 x41 +1 ~x37 x42 +1 ~x37 x44 +1 ~x37 x48 +1 x37 >= 1 ;
+1 x1 ~x38 +1 x4 ~x38 +1 x6 ~x38 +1 x9 ~x38 +1 x15 ~x38 +1 x16 ~x38 +1 x24 ~x38 +1 x26 ~x38 +1 x28 ~x38 +1 x36 ~x38 +1 x38 >= 1 ;
+1 x8 ~x39 +1 x13 ~x39 +1 x14 ~x39 +1 x17 ~x39 +1 x23 ~x39 +1 x24 ~x39 +1 x30 ~x39 +1 x33 ~x39 +1 x36 ~x39 +1 ~x39 x43 +1 ~x39 x46 +1 x39 >= 1 ;
+1 x2 ~x40 +1 x5 ~x40 +1 x7 ~x40 +1 x10 ~x40 +1 x17 ~x40 +1 x19 ~x40 +1 x25 ~x40 +1 x29 ~x40 +1 ~x40 x43 +1 ~x40 x49 +1 ~x40 x41 +1 ~x40 x46 +1 ~x40 x47 +1 x40 >= 1 ;
+1 x3 ~x41 +1 x8 ~x41 +1 x21 ~x41 +1 x26 ~x41 +1 x31 ~x41 +1 x37 ~x41 +1 x40 ~x41 +1 ~x41 x50 +1 ~x41 x44 +1 ~x41 x47 +1 ~x41 x45 +1 x41 >= 1 ;
+1 x2 ~x42 +1 x7 ~x42 +1 x11 ~x42 +1 x13 ~x42 +1 x18 ~x42 +1 x25 ~x42 +1 x32 ~x42 +1 x33 ~x42 +1 x37 ~x42 +1 ~x42 x48 +1 ~x42 x46 +1 x42 >= 1 ;
+1 x3 ~x43 +1 x4 ~x43 +1 x5 ~x43 +1 x19 ~x43 +1 x22 ~x43 +1 x27 ~x43 +1 x34 ~x43 +1 x39 ~x43 +1 x40 ~x43 +1 ~x43 x44 +1 x43 >= 1 ;
+1 x4 ~x44 +1 x5 ~x44 +1 x7 ~x44 +1 x11 ~x44 +1 x18 ~x44 +1 x20 ~x44 +1 x22 ~x44 +1 x37 ~x44 +1 x41 ~x44 +1 x43 ~x44 +1 x44 >= 1 ;
+1 x1 ~x45 +1 x4 ~x45 +1 x5 ~x45 +1 x7 ~x45 +1 x9 ~x45 +1 x10 ~x45 +1 x13 ~x45 +1 x16 ~x45 +1 x31 ~x45 +1 x41 ~x45 +1 ~x45 x46 +1 x45 >= 1 ;
+1 x1 ~x46 +1 x6 ~x46 +1 x15 ~x46 +1 x19 ~x46 +1 x26 ~x46 +1 x28 ~x46 +1 x39 ~x46 +1 x40 ~x46 +1 x42 ~x46 +1 x45 ~x46 +1 x46 >= 1 ;
+1 x8 ~x47 +1 x10 ~x47 +1 x12 ~x47 +1 x13 ~x47 +1 x20 ~x47 +1 x26 ~x47 +1 x30 ~x47 +1 x32 ~x47 +1 x40 ~x47 +1 x41 ~x47 +1 x47 >= 1 ;
+1 x2 ~x48 +1 x5 ~x48 +1 x6 ~x48 +1 x12 ~x48 +1 x21 ~x48 +1 x34 ~x48 +1 x36 ~x48 +1 x37 ~x48 +1 x42 ~x48 +1 ~x48 x50 +1 x48 >= 1 ;
+1 x4 ~x49 +1 x5 ~x49 +1 x6 ~x49 +1 x10 ~x49 +1 x16 ~x49 +1 x29 ~x49 +1 x33 ~x49 +1 x34 ~x49 +1 x35 ~x49 +1 x40 ~x49 +1 x49 >= 1 ;
+1 x2 ~x50 +1 x3 ~x50 +1 x6 ~x50 +1 x8 ~x50 +1 x10 ~x50 +1 x11 ~x50 +1 x26 ~x50 +1 x31 ~x50 +1 x41 ~x50 +1 x48 ~x50 +1 x50 >= 1 ;
